8084
35, 36, 39, 40, 38, 15, 6, 5, 24, 48, 37, 34, 44, 46, 25, 12, 51, 11, 52, 14, 13, 47, 26, 27, 28, 4, 43, 33, 10, 9, 8, 41, 19, 45, 3, 17, 21, 42, 7, 2, 30, 29, 16, 50, 20, 23, 31, 18, 22, 1, 32, 49
